HUN,8,6,716
5,22,4,22,0,22,1,21,3,30,2,22
1,21,5,22,4,24,2,30,0,21,3,26
0,24,1,22,5,25,4,22,3,23,2,25
0,28,2,24,4,26,3,29,5,25,1,25
4,27,0,24,3,29,2,24,1,24,5,22
4,24,0,23,1,26,3,23,5,22,2,28
5,25,3,29,0,23,1,27,4,30,2,23
1,29,0,24,2,24,3,28,4,29,5,23
